(set-info :smt-lib-version 2.6)
(set-logic ALL)
(set-info :source |
Generated on: 2026-06-22
Generator: ppTransSmt github.com/CLEARSY/pptranspog
Application: Discharging a proof obligation generated by aTelierB from an anonymized B machine
Target solver: CVC5 (--mbqi --enum-inst)
Time limit: 1200.0
|)
(set-info :license "www.gnu.org/licenses/gpl-3.0.en.html")
(set-info :category "industrial")
(set-info :status unknown)

(set-option :print-success false)
; Prelude
(declare-sort P 1)
(declare-fun mem0 (Int (P Int)) Bool)
(declare-sort C 2)
(define-fun MinInt () Int (- 2147483648))
(define-fun MaxInt () Int 2147483647)
; Global declarations
(declare-fun g_s0_0 () (P Int))
(declare-fun g_s10_10 () Int)
(declare-fun g_s11_11 () Int)
(declare-fun g_s12_12 () Int)
(declare-fun g_s13_13 () Int)
(declare-fun g_s14_14 () Int)
(declare-fun g_s15_15 () Int)
(declare-fun g_s16_16 () Int)
(declare-fun g_s17_17 () Int)
(declare-fun g_s18_18 () Int)
(declare-fun g_s19$1_25 () Bool)
(declare-fun g_s19_24 () Bool)
(declare-fun g_s1_1 () Int)
(declare-fun g_s20$1_27 () Bool)
(declare-fun g_s20_26 () Bool)
(declare-fun g_s21$1_29 () Bool)
(declare-fun g_s21_28 () Bool)
(declare-fun g_s22$1_31 () Bool)
(declare-fun g_s22_30 () Bool)
(declare-fun g_s23$1_19 () Int)
(declare-fun g_s23_36 () Int)
(declare-fun g_s24$1_20 () (P Int))
(declare-fun g_s24_32 () (P Int))
(declare-fun g_s25$1_21 () (P Int))
(declare-fun g_s25_33 () (P Int))
(declare-fun g_s26$1_22 () (P Int))
(declare-fun g_s26_34 () (P Int))
(declare-fun g_s27$1_23 () (P Int))
(declare-fun g_s27_35 () (P Int))
(declare-fun g_s29$1_37 () Int)
(declare-fun g_s2_2 () Int)
(declare-fun g_s30$1_38 () Int)
(declare-fun g_s30_43 () Int)
(declare-fun g_s31$1_39 () Int)
(declare-fun g_s32$1_40 () Int)
(declare-fun g_s33$1_41 () Int)
(declare-fun g_s34$1_42 () Int)
(declare-fun g_s35_44 () Int)
(declare-fun g_s36_45 () Int)
(declare-fun g_s3_3 () Int)
(declare-fun g_s4_4 () Int)
(declare-fun g_s5_5 () Int)
(declare-fun g_s6_6 () Int)
(declare-fun g_s7_7 () Int)
(declare-fun g_s8_8 () Int)
(declare-fun g_s9_9 () Int)
; Defines
(define-fun |def_ctx_0| () Bool (and (forall ( (x_3 Int) ) (= (mem0 x_3 g_s0_0) (or  (= x_3 g_s1_1) (= x_3 g_s2_2) (= x_3 g_s3_3) (= x_3 g_s4_4) (= x_3 g_s5_5) (= x_3 g_s6_6) (= x_3 g_s7_7) (= x_3 g_s8_8)))) (distinct g_s1_1 g_s2_2 g_s3_3 g_s4_4 g_s5_5 g_s6_6 g_s7_7 g_s8_8)))
(define-fun |def_ctx_1| () Bool (= g_s9_9 0))
(define-fun |def_ctx_2| () Bool (= g_s10_10 1))
(define-fun |def_ctx_3| () Bool (and (<= 0 g_s11_11) (<= g_s11_11 MaxInt)))
(define-fun |def_ctx_4| () Bool (and (<= 0 g_s12_12) (<= g_s12_12 MaxInt)))
(define-fun |def_ctx_5| () Bool (and (<= 0 g_s13_13) (<= g_s13_13 MaxInt)))
(define-fun |def_ctx_6| () Bool (and (<= 0 g_s14_14) (<= g_s14_14 MaxInt)))
(define-fun |def_ctx_7| () Bool (<= 1 g_s14_14))
(define-fun |def_ctx_8| () Bool (<= g_s14_14 254))
(define-fun |def_ctx_9| () Bool (= g_s14_14 g_s12_12))
(define-fun |def_ctx_10| () Bool (and (<= 0 g_s15_15) (<= g_s15_15 MaxInt)))
(define-fun |def_ctx_11| () Bool (<= 1 g_s15_15))
(define-fun |def_ctx_12| () Bool (<= g_s15_15 254))
(define-fun |def_ctx_13| () Bool (= g_s15_15 g_s12_12))
(define-fun |def_ctx_14| () Bool (and (<= 0 g_s16_16) (<= g_s16_16 MaxInt)))
(define-fun |def_ctx_15| () Bool (<= 1 g_s16_16))
(define-fun |def_ctx_16| () Bool (< g_s16_16 MaxInt))
(define-fun |def_ctx_17| () Bool (= g_s16_16 g_s13_13))
(define-fun |def_ctx_18| () Bool (and (<= 0 g_s17_17) (<= g_s17_17 MaxInt)))
(define-fun |def_ctx_19| () Bool (<= 2 g_s17_17))
(define-fun |def_ctx_20| () Bool (= g_s17_17 g_s11_11))
(define-fun |def_ctx_21| () Bool (<= (+ g_s17_17 g_s15_15) 253))
(define-fun |def_ctx_22| () Bool (<= (+ (+ g_s17_17 g_s14_14) g_s15_15) 251))
(define-fun |def_ctx_23| () Bool (and (<= 0 g_s18_18) (<= g_s18_18 MaxInt)))
(define-fun |def_ctx_24| () Bool (<= 1 g_s18_18))
(define-fun |def_ctx_25| () Bool (< g_s18_18 254))
(define-fun |def_ctx_26| () Bool (= g_s18_18 g_s11_11))
(define-fun |def_abs_0| () Bool true)
(define-fun |def_abs_1| () Bool true)
(define-fun |def_abs_2| () Bool true)
(define-fun |def_abs_3| () Bool true)
(define-fun |def_abs_4| () Bool (<= 0 g_s23$1_19))
(define-fun |def_abs_5| () Bool (forall ( (x_4 Int) ) (=> (mem0 x_4 g_s24$1_20) (<= 0 x_4))))
(define-fun |def_abs_6| () Bool (forall ( (x_5 Int) ) (=> (mem0 x_5 g_s25$1_21) (<= 0 x_5))))
(define-fun |def_abs_7| () Bool (forall ( (x_6 Int) ) (=> (mem0 x_6 g_s26$1_22) (<= 0 x_6))))
(define-fun |def_abs_8| () Bool (forall ( (x_7 Int) ) (=> (mem0 x_7 g_s27$1_23) (<= 0 x_7))))
(define-fun |def_abs_9| () Bool (forall ( (l_s28 Int) ) (=> (and  (<= 0 l_s28) (> l_s28 g_s23$1_19)) (not (mem0 l_s28 g_s24$1_20)))))
(define-fun |def_abs_10| () Bool (forall ( (l_s28 Int) ) (=> (and  (<= 0 l_s28) (> l_s28 g_s23$1_19)) (not (mem0 l_s28 g_s25$1_21)))))
(define-fun |def_abs_11| () Bool (forall ( (l_s28 Int) ) (=> (and  (<= 0 l_s28) (> l_s28 g_s23$1_19)) (not (mem0 l_s28 g_s26$1_22)))))
(define-fun |def_abs_12| () Bool (forall ( (l_s28 Int) ) (=> (and  (<= 0 l_s28) (> l_s28 g_s23$1_19)) (not (mem0 l_s28 g_s27$1_23)))))
(define-fun |def_abs_13| () Bool (forall ( (x_8 Int) ) (= (and (mem0 x_8 g_s25$1_21) (mem0 x_8 g_s24$1_20)) false)))
(define-fun |def_abs_14| () Bool (forall ( (x_9 Int) ) (= (and (mem0 x_9 g_s26$1_22) (mem0 x_9 g_s24$1_20)) false)))
(define-fun |def_abs_15| () Bool (forall ( (x_10 Int) ) (= (and (mem0 x_10 g_s27$1_23) (mem0 x_10 g_s24$1_20)) false)))
(define-fun |def_inv_0| () Bool (= g_s19_24 g_s19$1_25))
(define-fun |def_inv_1| () Bool (= g_s20_26 g_s20$1_27))
(define-fun |def_inv_2| () Bool (= g_s21_28 g_s21$1_29))
(define-fun |def_inv_3| () Bool (= g_s22_30 g_s22$1_31))
(define-fun |def_inv_4| () Bool (forall ( (x_11 Int) ) (= (mem0 x_11 g_s24_32) (mem0 x_11 g_s24$1_20))))
(define-fun |def_inv_5| () Bool (forall ( (x_12 Int) ) (= (mem0 x_12 g_s25_33) (mem0 x_12 g_s25$1_21))))
(define-fun |def_inv_6| () Bool (forall ( (x_13 Int) ) (= (mem0 x_13 g_s26_34) (mem0 x_13 g_s26$1_22))))
(define-fun |def_inv_7| () Bool (forall ( (x_14 Int) ) (= (mem0 x_14 g_s27_35) (mem0 x_14 g_s27$1_23))))
(define-fun |def_inv_8| () Bool (= g_s23_36 g_s23$1_19))
(define-fun |def_inv_9| () Bool (<= 0 g_s23$1_19))
(define-fun |def_inv_10| () Bool (forall ( (x_15 Int) ) (=> (mem0 x_15 g_s24$1_20) (<= 0 x_15))))
(define-fun |def_inv_11| () Bool (forall ( (x_16 Int) ) (=> (mem0 x_16 g_s25$1_21) (<= 0 x_16))))
(define-fun |def_inv_12| () Bool (forall ( (x_17 Int) ) (=> (mem0 x_17 g_s26$1_22) (<= 0 x_17))))
(define-fun |def_inv_13| () Bool (forall ( (x_18 Int) ) (=> (mem0 x_18 g_s27$1_23) (<= 0 x_18))))
(define-fun |def_inv_14| () Bool (mem0 g_s29$1_37 g_s0_0))
(define-fun |def_inv_15| () Bool (<= 0 g_s30$1_38))
(define-fun |def_inv_16| () Bool (<= 0 g_s31$1_39))
(define-fun |def_inv_17| () Bool (<= 0 g_s32$1_40))
(define-fun |def_inv_18| () Bool (<= 0 g_s33$1_41))
(define-fun |def_inv_19| () Bool (<= 0 g_s34$1_42))
(define-fun |def_inv_20| () Bool (=> (or  (= g_s29$1_37 g_s2_2) (= g_s29$1_37 g_s3_3) (= g_s29$1_37 g_s4_4) (= g_s29$1_37 g_s5_5) (= g_s29$1_37 g_s6_6) (= g_s29$1_37 g_s7_7) (= g_s29$1_37 g_s8_8)) (and (>= g_s30$1_38 1) (<= g_s30$1_38 g_s23$1_19))))
(define-fun |def_inv_21| () Bool (=> (= g_s29$1_37 g_s2_2) (forall ( (x_19 Int) ) (=> (and (>= x_19 g_s30$1_38) (<= x_19 g_s23$1_19)) (mem0 x_19 g_s25$1_21)))))
(define-fun |def_inv_22| () Bool (=> (= g_s29$1_37 g_s2_2) (>= g_s18_18 (- (+ g_s23$1_19 1) g_s30$1_38))))
(define-fun |def_inv_23| () Bool (=> (or  (= g_s29$1_37 g_s3_3) (= g_s29$1_37 g_s4_4) (= g_s29$1_37 g_s5_5) (= g_s29$1_37 g_s6_6) (= g_s29$1_37 g_s7_7) (= g_s29$1_37 g_s8_8)) (and  (and (>= g_s30$1_38 1) (<= g_s30$1_38 g_s23$1_19)) (and (>= g_s31$1_39 g_s30$1_38) (<= g_s31$1_39 g_s23$1_19)) (forall ( (x_20 Int) ) (=> (and (>= x_20 g_s30$1_38) (<= x_20 g_s31$1_39)) (mem0 x_20 g_s25$1_21))) (not (forall ((x_21 Int) ) (=> (= x_21 (+ g_s31$1_39 1)) (mem0 x_21 g_s25$1_21)))) (= (- g_s31$1_39 g_s30$1_38) g_s18_18))))
(define-fun |def_inv_24| () Bool (=> (= g_s29$1_37 g_s3_3) (and  (= g_s31$1_39 g_s23$1_19) (mem0 g_s23$1_19 g_s25$1_21))))
(define-fun |def_inv_25| () Bool (=> (or  (= g_s29$1_37 g_s4_4) (= g_s29$1_37 g_s5_5) (= g_s29$1_37 g_s6_6) (= g_s29$1_37 g_s7_7) (= g_s29$1_37 g_s8_8)) (and  (and (>= g_s30$1_38 1) (<= g_s30$1_38 g_s23$1_19)) (and (>= g_s31$1_39 g_s30$1_38) (<= g_s31$1_39 g_s23$1_19)) (forall ( (x_22 Int) ) (=> (and (>= x_22 g_s30$1_38) (<= x_22 g_s31$1_39)) (mem0 x_22 g_s25$1_21))) (= (- g_s31$1_39 g_s30$1_38) g_s18_18) (forall ( (x_23 Int) ) (=> (and (>= x_23 (+ g_s31$1_39 1)) (<= x_23 g_s23$1_19)) (or (or (or (mem0 x_23 g_s24$1_20) (mem0 x_23 g_s25$1_21)) (mem0 x_23 g_s26$1_22)) (mem0 x_23 g_s27$1_23)))))))
(define-fun |def_inv_26| () Bool (=> (= g_s29$1_37 g_s4_4) (and  (= g_s32$1_40 g_s23$1_19) (forall ( (x_24 Int) ) (=> (and (>= x_24 (+ g_s31$1_39 1)) (<= x_24 g_s23$1_19)) (or (mem0 x_24 g_s25$1_21) (mem0 x_24 g_s27$1_23)))))))
(define-fun |def_inv_27| () Bool (=> (or  (= g_s29$1_37 g_s4_4) (= g_s29$1_37 g_s5_5) (= g_s29$1_37 g_s6_6) (= g_s29$1_37 g_s7_7) (= g_s29$1_37 g_s8_8)) (and  (< g_s31$1_39 g_s23$1_19) (and (>= g_s32$1_40 g_s31$1_39) (<= g_s32$1_40 g_s23$1_19)) (<= (- (- g_s32$1_40 g_s31$1_39) 1) g_s14_14) (forall ( (x_25 Int) ) (=> (and (>= x_25 (+ g_s31$1_39 1)) (<= x_25 g_s32$1_40)) (or (mem0 x_25 g_s25$1_21) (mem0 x_25 g_s27$1_23)))))))
(define-fun |def_inv_28| () Bool (=> (= g_s29$1_37 g_s5_5) (= g_s33$1_41 g_s23$1_19)))
(define-fun |def_inv_29| () Bool (=> (or  (= g_s29$1_37 g_s5_5) (= g_s29$1_37 g_s6_6) (= g_s29$1_37 g_s7_7) (= g_s29$1_37 g_s8_8)) (and  (and (>= g_s33$1_41 g_s32$1_40) (<= g_s33$1_41 g_s23$1_19)) (forall ( (x_26 Int) ) (=> (and (>= x_26 (+ g_s32$1_40 1)) (<= x_26 g_s33$1_41)) (mem0 x_26 g_s27$1_23))))))
(define-fun |def_inv_30| () Bool (=> (= g_s29$1_37 g_s6_6) (forall ( (x_27 Int) ) (=> (and (>= x_27 (+ g_s33$1_41 1)) (<= x_27 g_s23$1_19)) (or (or (or (mem0 x_27 g_s24$1_20) (mem0 x_27 g_s25$1_21)) (mem0 x_27 g_s26$1_22)) (mem0 x_27 g_s27$1_23))))))
(define-fun |def_inv_31| () Bool (=> (= g_s29$1_37 g_s6_6) (and  (and (>= g_s34$1_42 g_s33$1_41) (<= g_s34$1_42 g_s23$1_19)) (and (>= g_s34$1_42 (- g_s23$1_19 1)) (<= g_s34$1_42 g_s23$1_19)) (forall ( (x_28 Int) ) (=> (and (>= x_28 (+ g_s33$1_41 1)) (<= x_28 g_s34$1_42)) (or (or (or (mem0 x_28 g_s24$1_20) (mem0 x_28 g_s25$1_21)) (mem0 x_28 g_s26$1_22)) (mem0 x_28 g_s27$1_23)))) (forall ( (x_29 Int) ) (=> (and (>= x_29 (+ g_s34$1_42 1)) (<= x_29 g_s23$1_19)) (mem0 x_29 g_s24$1_20))) (not (mem0 g_s34$1_42 g_s24$1_20)))))
(define-fun |def_inv_32| () Bool (=> (= g_s29$1_37 g_s6_6) (not (forall ( (x_30 Int) ) (=> (and (>= x_30 (- g_s23$1_19 1)) (<= x_30 g_s23$1_19)) (mem0 x_30 g_s24$1_20))))))
(define-fun |def_inv_33| () Bool (=> (or  (= g_s29$1_37 g_s6_6) (= g_s29$1_37 g_s7_7)) (forall ( (l_s35 Int) (l_s36 Int) ) (=> (and  (and (>= l_s35 (+ g_s33$1_41 1)) (<= l_s35 g_s23$1_19)) (and (>= l_s36 (+ g_s33$1_41 1)) (<= l_s36 g_s23$1_19)) (forall ( (x_31 Int) ) (=> (and (>= x_31 l_s35) (<= x_31 l_s36)) (mem0 x_31 g_s24$1_20)))) (< (- l_s36 l_s35) g_s17_17)))))
(define-fun |def_inv_34| () Bool (=> (or  (= g_s29$1_37 g_s6_6) (= g_s29$1_37 g_s7_7) (= g_s29$1_37 g_s8_8)) (and  (not (forall ((x_32 Int) ) (=> (= x_32 (+ g_s33$1_41 1)) (mem0 x_32 g_s27$1_23)))) (< g_s33$1_41 g_s23$1_19))))
(define-fun |def_inv_35| () Bool (=> (or  (= g_s29$1_37 g_s7_7) (= g_s29$1_37 g_s8_8)) (and  (and (>= g_s34$1_42 g_s33$1_41) (<= g_s34$1_42 g_s23$1_19)) (forall ( (x_33 Int) ) (=> (and (>= x_33 (+ g_s34$1_42 1)) (<= x_33 g_s23$1_19)) (mem0 x_33 g_s24$1_20))) (forall ( (x_34 Int) ) (=> (and (>= x_34 (+ g_s33$1_41 1)) (<= x_34 g_s34$1_42)) (or (or (or (mem0 x_34 g_s24$1_20) (mem0 x_34 g_s25$1_21)) (mem0 x_34 g_s26$1_22)) (mem0 x_34 g_s27$1_23)))))))
(define-fun |def_inv_36| () Bool (=> (= g_s29$1_37 g_s7_7) (and  (<= g_s34$1_42 g_s23$1_19) (not (mem0 g_s34$1_42 g_s24$1_20)))))
(define-fun |def_inv_37| () Bool (=> (= g_s29$1_37 g_s7_7) (<= (- (- g_s23$1_19 1) g_s34$1_42) g_s17_17)))
(define-fun |def_inv_38| () Bool (=> (or  (= g_s29$1_37 g_s7_7) (= g_s29$1_37 g_s8_8)) (<= (- (- g_s34$1_42 g_s33$1_41) 1) g_s15_15)))
(define-fun |def_inv_39| () Bool (=> (= g_s29$1_37 g_s8_8) (and  (forall ( (l_s35 Int) (l_s36 Int) ) (=> (and  (and (>= l_s35 (+ g_s33$1_41 1)) (<= l_s35 g_s34$1_42)) (and (>= l_s36 (+ g_s33$1_41 1)) (<= l_s36 g_s34$1_42)) (forall ( (x_35 Int) ) (=> (and (>= x_35 l_s35) (<= x_35 l_s36)) (mem0 x_35 g_s24$1_20)))) (< (- l_s36 l_s35) g_s17_17))) (and (>= (- (- g_s23$1_19 g_s34$1_42) 1) g_s17_17) (<= (- (- g_s23$1_19 g_s34$1_42) 1) (+ g_s17_17 g_s16_16))))))
; PO group s39
(assert (! |def_ctx_0| :named |ctx0|))
(assert (! |def_ctx_1| :named |ctx1|))
(assert (! |def_ctx_2| :named |ctx2|))
(assert (! |def_ctx_3| :named |ctx3|))
(assert (! |def_ctx_4| :named |ctx4|))
(assert (! |def_ctx_5| :named |ctx5|))
(assert (! |def_ctx_6| :named |ctx6|))
(assert (! |def_ctx_7| :named |ctx7|))
(assert (! |def_ctx_8| :named |ctx8|))
(assert (! |def_ctx_9| :named |ctx9|))
(assert (! |def_ctx_10| :named |ctx10|))
(assert (! |def_ctx_11| :named |ctx11|))
(assert (! |def_ctx_12| :named |ctx12|))
(assert (! |def_ctx_13| :named |ctx13|))
(assert (! |def_ctx_14| :named |ctx14|))
(assert (! |def_ctx_15| :named |ctx15|))
(assert (! |def_ctx_16| :named |ctx16|))
(assert (! |def_ctx_17| :named |ctx17|))
(assert (! |def_ctx_18| :named |ctx18|))
(assert (! |def_ctx_19| :named |ctx19|))
(assert (! |def_ctx_20| :named |ctx20|))
(assert (! |def_ctx_21| :named |ctx21|))
(assert (! |def_ctx_22| :named |ctx22|))
(assert (! |def_ctx_23| :named |ctx23|))
(assert (! |def_ctx_24| :named |ctx24|))
(assert (! |def_ctx_25| :named |ctx25|))
(assert (! |def_ctx_26| :named |ctx26|))
(assert (! |def_abs_0| :named |abs0|))
(assert (! |def_abs_1| :named |abs1|))
(assert (! |def_abs_2| :named |abs2|))
(assert (! |def_abs_3| :named |abs3|))
(assert (! |def_abs_4| :named |abs4|))
(assert (! |def_abs_5| :named |abs5|))
(assert (! |def_abs_6| :named |abs6|))
(assert (! |def_abs_7| :named |abs7|))
(assert (! |def_abs_8| :named |abs8|))
(assert (! |def_abs_9| :named |abs9|))
(assert (! |def_abs_10| :named |abs10|))
(assert (! |def_abs_11| :named |abs11|))
(assert (! |def_abs_12| :named |abs12|))
(assert (! |def_abs_13| :named |abs13|))
(assert (! |def_abs_14| :named |abs14|))
(assert (! |def_abs_15| :named |abs15|))
(assert (! |def_inv_0| :named |inv0|))
(assert (! |def_inv_1| :named |inv1|))
(assert (! |def_inv_2| :named |inv2|))
(assert (! |def_inv_3| :named |inv3|))
(assert (! |def_inv_4| :named |inv4|))
(assert (! |def_inv_5| :named |inv5|))
(assert (! |def_inv_6| :named |inv6|))
(assert (! |def_inv_7| :named |inv7|))
(assert (! |def_inv_8| :named |inv8|))
(assert (! |def_inv_9| :named |inv9|))
(assert (! |def_inv_10| :named |inv10|))
(assert (! |def_inv_11| :named |inv11|))
(assert (! |def_inv_12| :named |inv12|))
(assert (! |def_inv_13| :named |inv13|))
(assert (! |def_inv_14| :named |inv14|))
(assert (! |def_inv_15| :named |inv15|))
(assert (! |def_inv_16| :named |inv16|))
(assert (! |def_inv_17| :named |inv17|))
(assert (! |def_inv_18| :named |inv18|))
(assert (! |def_inv_19| :named |inv19|))
(assert (! |def_inv_20| :named |inv20|))
(assert (! |def_inv_21| :named |inv21|))
(assert (! |def_inv_22| :named |inv22|))
(assert (! |def_inv_23| :named |inv23|))
(assert (! |def_inv_24| :named |inv24|))
(assert (! |def_inv_25| :named |inv25|))
(assert (! |def_inv_26| :named |inv26|))
(assert (! |def_inv_27| :named |inv27|))
(assert (! |def_inv_28| :named |inv28|))
(assert (! |def_inv_29| :named |inv29|))
(assert (! |def_inv_30| :named |inv30|))
(assert (! |def_inv_31| :named |inv31|))
(assert (! |def_inv_32| :named |inv32|))
(assert (! |def_inv_33| :named |inv33|))
(assert (! |def_inv_34| :named |inv34|))
(assert (! |def_inv_35| :named |inv35|))
(assert (! |def_inv_36| :named |inv36|))
(assert (! |def_inv_37| :named |inv37|))
(assert (! |def_inv_38| :named |inv38|))
(assert (! |def_inv_39| :named |inv39|))
(define-fun lh_1 () Bool (= g_s29$1_37 g_s1_1))
(define-fun lh_2 () Bool (= g_s19$1_25 false))
(define-fun lh_3 () Bool (= g_s20$1_27 true))
(define-fun lh_4 () Bool (= g_s21$1_29 true))
(define-fun lh_5 () Bool (= g_s22$1_31 false))
(define-fun lh_6 () Bool (<= 0 g_s30_43))
(define-fun lh_7 () Bool (or  (= g_s29$1_37 g_s2_2) (= g_s29$1_37 g_s3_3) (= g_s29$1_37 g_s4_4) (= g_s29$1_37 g_s5_5) (= g_s29$1_37 g_s6_6) (= g_s29$1_37 g_s7_7) (= g_s29$1_37 g_s8_8)))
(define-fun lh_8 () Bool (= g_s29$1_37 g_s2_2))
(define-fun lh_9 () Bool (or  (= g_s29$1_37 g_s3_3) (= g_s29$1_37 g_s4_4) (= g_s29$1_37 g_s5_5) (= g_s29$1_37 g_s6_6) (= g_s29$1_37 g_s7_7) (= g_s29$1_37 g_s8_8)))
(define-fun lh_10 () Bool (= g_s29$1_37 g_s3_3))
(define-fun lh_11 () Bool (or  (= g_s29$1_37 g_s4_4) (= g_s29$1_37 g_s5_5) (= g_s29$1_37 g_s6_6) (= g_s29$1_37 g_s7_7) (= g_s29$1_37 g_s8_8)))
(define-fun lh_12 () Bool (= g_s29$1_37 g_s4_4))
(define-fun lh_13 () Bool (= g_s29$1_37 g_s5_5))
(define-fun lh_14 () Bool (or  (= g_s29$1_37 g_s5_5) (= g_s29$1_37 g_s6_6) (= g_s29$1_37 g_s7_7) (= g_s29$1_37 g_s8_8)))
(define-fun lh_15 () Bool (= g_s29$1_37 g_s6_6))
(define-fun lh_16 () Bool (or  (= g_s29$1_37 g_s6_6) (= g_s29$1_37 g_s7_7)))
(define-fun lh_17 () Bool (and (>= g_s35_44 (+ g_s33$1_41 1)) (<= g_s35_44 (+ g_s23$1_19 1))))
(define-fun lh_18 () Bool (and (>= g_s36_45 (+ g_s33$1_41 1)) (<= g_s36_45 (+ g_s23$1_19 1))))
(define-fun lh_19 () Bool (forall ( (x_36 Int) ) (=> (and (>= x_36 g_s35_44) (<= x_36 g_s36_45)) (or (mem0 x_36 g_s24$1_20) (= x_36 (+ g_s23$1_19 1))))))
(define-fun lh_20 () Bool (or  (= g_s29$1_37 g_s6_6) (= g_s29$1_37 g_s7_7) (= g_s29$1_37 g_s8_8)))
(define-fun lh_21 () Bool (or  (= g_s29$1_37 g_s7_7) (= g_s29$1_37 g_s8_8)))
(define-fun lh_22 () Bool (= g_s29$1_37 g_s7_7))
(define-fun lh_23 () Bool (= g_s29$1_37 g_s8_8))
(define-fun lh_24 () Bool (and (>= g_s35_44 (+ g_s33$1_41 1)) (<= g_s35_44 g_s34$1_42)))
(define-fun lh_25 () Bool (and (>= g_s36_45 (+ g_s33$1_41 1)) (<= g_s36_45 g_s34$1_42)))
(define-fun lh_26 () Bool (= g_s19$1_25 true))
(define-fun lh_27 () Bool (= g_s21$1_29 false))
(define-fun lh_28 () Bool (or  (= g_s2_2 g_s2_2) (= g_s2_2 g_s3_3) (= g_s2_2 g_s4_4) (= g_s2_2 g_s5_5) (= g_s2_2 g_s6_6) (= g_s2_2 g_s7_7) (= g_s2_2 g_s8_8)))
(define-fun lh_29 () Bool (or  (= g_s2_2 g_s3_3) (= g_s2_2 g_s4_4) (= g_s2_2 g_s5_5) (= g_s2_2 g_s6_6) (= g_s2_2 g_s7_7) (= g_s2_2 g_s8_8)))
(define-fun lh_30 () Bool (= g_s2_2 g_s3_3))
(define-fun lh_31 () Bool (or  (= g_s2_2 g_s4_4) (= g_s2_2 g_s5_5) (= g_s2_2 g_s6_6) (= g_s2_2 g_s7_7) (= g_s2_2 g_s8_8)))
(define-fun lh_32 () Bool (= g_s2_2 g_s4_4))
(define-fun lh_33 () Bool (= g_s2_2 g_s5_5))
(define-fun lh_34 () Bool (or  (= g_s2_2 g_s5_5) (= g_s2_2 g_s6_6) (= g_s2_2 g_s7_7) (= g_s2_2 g_s8_8)))
(define-fun lh_35 () Bool (= g_s2_2 g_s6_6))
(define-fun lh_36 () Bool (or  (= g_s2_2 g_s6_6) (= g_s2_2 g_s7_7)))
(define-fun lh_37 () Bool (forall ( (x_37 Int) ) (=> (and (>= x_37 g_s35_44) (<= x_37 g_s36_45)) (mem0 x_37 g_s24$1_20))))
(define-fun lh_38 () Bool (or  (= g_s2_2 g_s6_6) (= g_s2_2 g_s7_7) (= g_s2_2 g_s8_8)))
(define-fun lh_39 () Bool (or  (= g_s2_2 g_s7_7) (= g_s2_2 g_s8_8)))
(define-fun lh_40 () Bool (= g_s2_2 g_s7_7))
(define-fun lh_41 () Bool (= g_s2_2 g_s8_8))
(define-fun lh_42 () Bool (not (and  (= g_s19$1_25 false) (= g_s20$1_27 true) (= g_s21$1_29 true) (= g_s22$1_31 false))))
(define-fun lh_43 () Bool (not (and  (= g_s19$1_25 true) (= g_s20$1_27 true) (= g_s21$1_29 false) (= g_s22$1_31 false))))
(define-fun lh_44 () Bool (not (and  (= g_s19$1_25 true) (= g_s20$1_27 true) (= g_s21$1_29 true) (= g_s22$1_31 false))))
(define-fun lh_45 () Bool (not (and  (= g_s19$1_25 false) (= g_s20$1_27 true) (= g_s21$1_29 false) (= g_s22$1_31 false))))
(define-fun lh_46 () Bool (or  (= g_s1_1 g_s2_2) (= g_s1_1 g_s3_3) (= g_s1_1 g_s4_4) (= g_s1_1 g_s5_5) (= g_s1_1 g_s6_6) (= g_s1_1 g_s7_7) (= g_s1_1 g_s8_8)))
(define-fun lh_47 () Bool (= g_s1_1 g_s2_2))
(define-fun lh_48 () Bool (or  (= g_s1_1 g_s3_3) (= g_s1_1 g_s4_4) (= g_s1_1 g_s5_5) (= g_s1_1 g_s6_6) (= g_s1_1 g_s7_7) (= g_s1_1 g_s8_8)))
(define-fun lh_49 () Bool (= g_s1_1 g_s3_3))
(define-fun lh_50 () Bool (or  (= g_s1_1 g_s4_4) (= g_s1_1 g_s5_5) (= g_s1_1 g_s6_6) (= g_s1_1 g_s7_7) (= g_s1_1 g_s8_8)))
(define-fun lh_51 () Bool (= g_s1_1 g_s4_4))
(define-fun lh_52 () Bool (= g_s1_1 g_s5_5))
(define-fun lh_53 () Bool (or  (= g_s1_1 g_s5_5) (= g_s1_1 g_s6_6) (= g_s1_1 g_s7_7) (= g_s1_1 g_s8_8)))
(define-fun lh_54 () Bool (= g_s1_1 g_s6_6))
(define-fun lh_55 () Bool (or  (= g_s1_1 g_s6_6) (= g_s1_1 g_s7_7)))
(define-fun lh_56 () Bool (or  (= g_s1_1 g_s6_6) (= g_s1_1 g_s7_7) (= g_s1_1 g_s8_8)))
(define-fun lh_57 () Bool (or  (= g_s1_1 g_s7_7) (= g_s1_1 g_s8_8)))
(define-fun lh_58 () Bool (= g_s1_1 g_s7_7))
(define-fun lh_59 () Bool (= g_s1_1 g_s8_8))
(define-fun lh_60 () Bool (>= (- (+ g_s23$1_19 1) g_s30$1_38) g_s18_18))
(define-fun lh_61 () Bool (or  (= g_s3_3 g_s2_2) (= g_s3_3 g_s3_3) (= g_s3_3 g_s4_4) (= g_s3_3 g_s5_5) (= g_s3_3 g_s6_6) (= g_s3_3 g_s7_7) (= g_s3_3 g_s8_8)))
(define-fun lh_62 () Bool (= g_s3_3 g_s2_2))
(define-fun lh_63 () Bool (or  (= g_s3_3 g_s3_3) (= g_s3_3 g_s4_4) (= g_s3_3 g_s5_5) (= g_s3_3 g_s6_6) (= g_s3_3 g_s7_7) (= g_s3_3 g_s8_8)))
(define-fun lh_64 () Bool (or  (= g_s3_3 g_s4_4) (= g_s3_3 g_s5_5) (= g_s3_3 g_s6_6) (= g_s3_3 g_s7_7) (= g_s3_3 g_s8_8)))
(define-fun lh_65 () Bool (= g_s3_3 g_s4_4))
(define-fun lh_66 () Bool (= g_s3_3 g_s5_5))
(define-fun lh_67 () Bool (or  (= g_s3_3 g_s5_5) (= g_s3_3 g_s6_6) (= g_s3_3 g_s7_7) (= g_s3_3 g_s8_8)))
(define-fun lh_68 () Bool (= g_s3_3 g_s6_6))
(define-fun lh_69 () Bool (or  (= g_s3_3 g_s6_6) (= g_s3_3 g_s7_7)))
(define-fun lh_70 () Bool (or  (= g_s3_3 g_s6_6) (= g_s3_3 g_s7_7) (= g_s3_3 g_s8_8)))
(define-fun lh_71 () Bool (or  (= g_s3_3 g_s7_7) (= g_s3_3 g_s8_8)))
(define-fun lh_72 () Bool (= g_s3_3 g_s7_7))
(define-fun lh_73 () Bool (= g_s3_3 g_s8_8))
(define-fun lh_74 () Bool (not (>= (- (+ g_s23$1_19 1) g_s30$1_38) g_s18_18)))
(define-fun lh_75 () Bool (or  (= g_s6_6 g_s2_2) (= g_s6_6 g_s3_3) (= g_s6_6 g_s4_4) (= g_s6_6 g_s5_5) (= g_s6_6 g_s6_6) (= g_s6_6 g_s7_7) (= g_s6_6 g_s8_8)))
(define-fun lh_76 () Bool (= g_s6_6 g_s2_2))
(define-fun lh_77 () Bool (or  (= g_s6_6 g_s3_3) (= g_s6_6 g_s4_4) (= g_s6_6 g_s5_5) (= g_s6_6 g_s6_6) (= g_s6_6 g_s7_7) (= g_s6_6 g_s8_8)))
(define-fun lh_78 () Bool (= g_s6_6 g_s3_3))
(define-fun lh_79 () Bool (or  (= g_s6_6 g_s4_4) (= g_s6_6 g_s5_5) (= g_s6_6 g_s6_6) (= g_s6_6 g_s7_7) (= g_s6_6 g_s8_8)))
(define-fun lh_80 () Bool (= g_s6_6 g_s4_4))
(define-fun lh_81 () Bool (= g_s6_6 g_s5_5))
(define-fun lh_82 () Bool (or  (= g_s6_6 g_s5_5) (= g_s6_6 g_s6_6) (= g_s6_6 g_s7_7) (= g_s6_6 g_s8_8)))
(define-fun lh_83 () Bool (or  (= g_s6_6 g_s6_6) (= g_s6_6 g_s7_7)))
(define-fun lh_84 () Bool (and (>= g_s35_44 (+ g_s31$1_39 1)) (<= g_s35_44 (+ g_s23$1_19 1))))
(define-fun lh_85 () Bool (and (>= g_s36_45 (+ g_s31$1_39 1)) (<= g_s36_45 (+ g_s23$1_19 1))))
(define-fun lh_86 () Bool (or  (= g_s6_6 g_s6_6) (= g_s6_6 g_s7_7) (= g_s6_6 g_s8_8)))
(define-fun lh_87 () Bool (or  (= g_s6_6 g_s7_7) (= g_s6_6 g_s8_8)))
(define-fun lh_88 () Bool (= g_s6_6 g_s7_7))
(define-fun lh_89 () Bool (= g_s6_6 g_s8_8))
(define-fun lh_90 () Bool (and (>= g_s35_44 (+ g_s31$1_39 1)) (<= g_s35_44 g_s23$1_19)))
(define-fun lh_91 () Bool (and (>= g_s36_45 (+ g_s31$1_39 1)) (<= g_s36_45 g_s23$1_19)))
(define-fun lh_92 () Bool (or  (= g_s4_4 g_s2_2) (= g_s4_4 g_s3_3) (= g_s4_4 g_s4_4) (= g_s4_4 g_s5_5) (= g_s4_4 g_s6_6) (= g_s4_4 g_s7_7) (= g_s4_4 g_s8_8)))
(define-fun lh_93 () Bool (= g_s4_4 g_s2_2))
(define-fun lh_94 () Bool (or  (= g_s4_4 g_s3_3) (= g_s4_4 g_s4_4) (= g_s4_4 g_s5_5) (= g_s4_4 g_s6_6) (= g_s4_4 g_s7_7) (= g_s4_4 g_s8_8)))
(define-fun lh_95 () Bool (= g_s4_4 g_s3_3))
(define-fun lh_96 () Bool (or  (= g_s4_4 g_s4_4) (= g_s4_4 g_s5_5) (= g_s4_4 g_s6_6) (= g_s4_4 g_s7_7) (= g_s4_4 g_s8_8)))
(define-fun lh_97 () Bool (= g_s4_4 g_s5_5))
(define-fun lh_98 () Bool (or  (= g_s4_4 g_s5_5) (= g_s4_4 g_s6_6) (= g_s4_4 g_s7_7) (= g_s4_4 g_s8_8)))
(define-fun lh_99 () Bool (= g_s4_4 g_s6_6))
(define-fun lh_100 () Bool (or  (= g_s4_4 g_s6_6) (= g_s4_4 g_s7_7)))
(define-fun lh_101 () Bool (or  (= g_s4_4 g_s6_6) (= g_s4_4 g_s7_7) (= g_s4_4 g_s8_8)))
(define-fun lh_102 () Bool (or  (= g_s4_4 g_s7_7) (= g_s4_4 g_s8_8)))
(define-fun lh_103 () Bool (= g_s4_4 g_s7_7))
(define-fun lh_104 () Bool (= g_s4_4 g_s8_8))
(define-fun lh_105 () Bool (and (>= g_s35_44 (+ g_s32$1_40 1)) (<= g_s35_44 (+ g_s23$1_19 1))))
(define-fun lh_106 () Bool (and (>= g_s36_45 (+ g_s32$1_40 1)) (<= g_s36_45 (+ g_s23$1_19 1))))
(define-fun lh_107 () Bool (and (>= g_s35_44 (+ g_s32$1_40 1)) (<= g_s35_44 g_s23$1_19)))
(define-fun lh_108 () Bool (and (>= g_s36_45 (+ g_s32$1_40 1)) (<= g_s36_45 g_s23$1_19)))
(define-fun lh_109 () Bool (<= (+ (- (- (+ g_s32$1_40 1) g_s31$1_39) 1) 1) g_s14_14))
(define-fun lh_110 () Bool (not (<= (+ (- (- (+ g_s32$1_40 1) g_s31$1_39) 1) 1) g_s14_14)))
(define-fun lh_111 () Bool (or  (= g_s5_5 g_s2_2) (= g_s5_5 g_s3_3) (= g_s5_5 g_s4_4) (= g_s5_5 g_s5_5) (= g_s5_5 g_s6_6) (= g_s5_5 g_s7_7) (= g_s5_5 g_s8_8)))
(define-fun lh_112 () Bool (= g_s5_5 g_s2_2))
(define-fun lh_113 () Bool (or  (= g_s5_5 g_s3_3) (= g_s5_5 g_s4_4) (= g_s5_5 g_s5_5) (= g_s5_5 g_s6_6) (= g_s5_5 g_s7_7) (= g_s5_5 g_s8_8)))
(define-fun lh_114 () Bool (= g_s5_5 g_s3_3))
(define-fun lh_115 () Bool (or  (= g_s5_5 g_s4_4) (= g_s5_5 g_s5_5) (= g_s5_5 g_s6_6) (= g_s5_5 g_s7_7) (= g_s5_5 g_s8_8)))
(define-fun lh_116 () Bool (= g_s5_5 g_s4_4))
(define-fun lh_117 () Bool (or  (= g_s5_5 g_s5_5) (= g_s5_5 g_s6_6) (= g_s5_5 g_s7_7) (= g_s5_5 g_s8_8)))
(define-fun lh_118 () Bool (= g_s5_5 g_s6_6))
(define-fun lh_119 () Bool (or  (= g_s5_5 g_s6_6) (= g_s5_5 g_s7_7)))
(define-fun lh_120 () Bool (and (>= g_s35_44 (+ (+ g_s23$1_19 1) 1)) (<= g_s35_44 (+ g_s23$1_19 1))))
(define-fun lh_121 () Bool (and (>= g_s36_45 (+ (+ g_s23$1_19 1) 1)) (<= g_s36_45 (+ g_s23$1_19 1))))
(define-fun lh_122 () Bool (or  (= g_s5_5 g_s6_6) (= g_s5_5 g_s7_7) (= g_s5_5 g_s8_8)))
(define-fun lh_123 () Bool (or  (= g_s5_5 g_s7_7) (= g_s5_5 g_s8_8)))
(define-fun lh_124 () Bool (= g_s5_5 g_s7_7))
(define-fun lh_125 () Bool (= g_s5_5 g_s8_8))
(define-fun lh_126 () Bool (and (>= g_s35_44 (+ (+ g_s23$1_19 1) 1)) (<= g_s35_44 g_s34$1_42)))
(define-fun lh_127 () Bool (and (>= g_s36_45 (+ (+ g_s23$1_19 1) 1)) (<= g_s36_45 g_s34$1_42)))
(define-fun lh_128 () Bool (and (>= g_s35_44 (+ g_s33$1_41 1)) (<= g_s35_44 g_s23$1_19)))
(define-fun lh_129 () Bool (and (>= g_s36_45 (+ g_s33$1_41 1)) (<= g_s36_45 g_s23$1_19)))
(define-fun lh_130 () Bool (<= (- (- (+ g_s23$1_19 1) g_s33$1_41) 1) g_s15_15))
(define-fun lh_131 () Bool (or  (= g_s7_7 g_s2_2) (= g_s7_7 g_s3_3) (= g_s7_7 g_s4_4) (= g_s7_7 g_s5_5) (= g_s7_7 g_s6_6) (= g_s7_7 g_s7_7) (= g_s7_7 g_s8_8)))
(define-fun lh_132 () Bool (= g_s7_7 g_s2_2))
(define-fun lh_133 () Bool (or  (= g_s7_7 g_s3_3) (= g_s7_7 g_s4_4) (= g_s7_7 g_s5_5) (= g_s7_7 g_s6_6) (= g_s7_7 g_s7_7) (= g_s7_7 g_s8_8)))
(define-fun lh_134 () Bool (= g_s7_7 g_s3_3))
(define-fun lh_135 () Bool (or  (= g_s7_7 g_s4_4) (= g_s7_7 g_s5_5) (= g_s7_7 g_s6_6) (= g_s7_7 g_s7_7) (= g_s7_7 g_s8_8)))
(define-fun lh_136 () Bool (= g_s7_7 g_s4_4))
(define-fun lh_137 () Bool (= g_s7_7 g_s5_5))
(define-fun lh_138 () Bool (or  (= g_s7_7 g_s5_5) (= g_s7_7 g_s6_6) (= g_s7_7 g_s7_7) (= g_s7_7 g_s8_8)))
(define-fun lh_139 () Bool (= g_s7_7 g_s6_6))
(define-fun lh_140 () Bool (or  (= g_s7_7 g_s6_6) (= g_s7_7 g_s7_7)))
(define-fun lh_141 () Bool (or  (= g_s7_7 g_s6_6) (= g_s7_7 g_s7_7) (= g_s7_7 g_s8_8)))
(define-fun lh_142 () Bool (or  (= g_s7_7 g_s7_7) (= g_s7_7 g_s8_8)))
(define-fun lh_143 () Bool (= g_s7_7 g_s8_8))
(define-fun lh_144 () Bool (not (<= (- (- (+ g_s23$1_19 1) g_s33$1_41) 1) g_s15_15)))
(define-fun lh_145 () Bool (<= (+ (- (- (+ g_s23$1_19 1) g_s34$1_42) 1) 1) g_s17_17))
(define-fun lh_146 () Bool (not (<= (+ (- (- (+ g_s23$1_19 1) g_s34$1_42) 1) 1) g_s17_17)))
(define-fun lh_147 () Bool (or  (= g_s8_8 g_s2_2) (= g_s8_8 g_s3_3) (= g_s8_8 g_s4_4) (= g_s8_8 g_s5_5) (= g_s8_8 g_s6_6) (= g_s8_8 g_s7_7) (= g_s8_8 g_s8_8)))
(define-fun lh_148 () Bool (= g_s8_8 g_s2_2))
(define-fun lh_149 () Bool (or  (= g_s8_8 g_s3_3) (= g_s8_8 g_s4_4) (= g_s8_8 g_s5_5) (= g_s8_8 g_s6_6) (= g_s8_8 g_s7_7) (= g_s8_8 g_s8_8)))
(define-fun lh_150 () Bool (= g_s8_8 g_s3_3))
(define-fun lh_151 () Bool (or  (= g_s8_8 g_s4_4) (= g_s8_8 g_s5_5) (= g_s8_8 g_s6_6) (= g_s8_8 g_s7_7) (= g_s8_8 g_s8_8)))
(define-fun lh_152 () Bool (= g_s8_8 g_s4_4))
(define-fun lh_153 () Bool (= g_s8_8 g_s5_5))
(define-fun lh_154 () Bool (or  (= g_s8_8 g_s5_5) (= g_s8_8 g_s6_6) (= g_s8_8 g_s7_7) (= g_s8_8 g_s8_8)))
(define-fun lh_155 () Bool (= g_s8_8 g_s6_6))
(define-fun lh_156 () Bool (or  (= g_s8_8 g_s6_6) (= g_s8_8 g_s7_7)))
(define-fun lh_157 () Bool (or  (= g_s8_8 g_s6_6) (= g_s8_8 g_s7_7) (= g_s8_8 g_s8_8)))
(define-fun lh_158 () Bool (or  (= g_s8_8 g_s7_7) (= g_s8_8 g_s8_8)))
(define-fun lh_159 () Bool (= g_s8_8 g_s7_7))
(define-fun lh_160 () Bool (<= (+ (- g_s23$1_19 g_s34$1_42) 1) (+ g_s17_17 g_s16_16)))
(define-fun lh_161 () Bool (not (<= (+ (- g_s23$1_19 g_s34$1_42) 1) (+ g_s17_17 g_s16_16))))
(define-fun lh_162 () Bool (not (= g_s29$1_37 g_s1_1)))
(define-fun lh_163 () Bool (not (= g_s29$1_37 g_s2_2)))
(define-fun lh_164 () Bool (not (= g_s29$1_37 g_s3_3)))
(define-fun lh_165 () Bool (not (= g_s29$1_37 g_s4_4)))
(define-fun lh_166 () Bool (not (= g_s29$1_37 g_s5_5)))
(define-fun lh_167 () Bool (not (= g_s29$1_37 g_s6_6)))
(define-fun lh_168 () Bool (not (= g_s29$1_37 g_s7_7)))
(define-fun lh_169 () Bool (not (= g_s29$1_37 g_s8_8)))
; PO 2120 in group s39
(assert (! (not (=> (and lh_22 lh_2 lh_3 lh_27 lh_5) (not (forall ( (x_38 Int) ) (=> (and (>= x_38 (- (+ g_s23$1_19 1) 1)) (<= x_38 (+ g_s23$1_19 1))) (mem0 x_38 g_s24$1_20)))))) :named goal))
(check-sat)
(exit)
